NAME          DCAP_3_4_2_300_SS219
ROWS
 N  OBJ
 L  CON1
 L  CON2
 L  CON3
 L  CON4
 L  CON5
 L  CON6
 L  CON7
 L  CON8
 L  CON9
 L  CON10
 L  CON11
 L  CON12
 E  CON13
 E  CON14
 E  CON15
 E  CON16
 E  CON17
 E  CON18
 E  CON19
 E  CON20
COLUMNS
    x[1,1]    OBJ       6.180167      CON1      1.000000    
    x[1,1]    CON7      -1.000000     CON8      -1.000000   
    x[1,2]    OBJ       5.039546      CON2      1.000000    
    x[1,2]    CON8      -1.000000   
    x[2,1]    OBJ       6.732585      CON3      1.000000    
    x[2,1]    CON9      -1.000000     CON10     -1.000000   
    x[2,2]    OBJ       7.443064      CON4      1.000000    
    x[2,2]    CON10     -1.000000   
    x[3,1]    OBJ       6.563535      CON5      1.000000    
    x[3,1]    CON11     -1.000000     CON12     -1.000000   
    x[3,2]    OBJ       6.054841      CON6      1.000000    
    x[3,2]    CON12     -1.000000   
    MARKER    'MARKER'                'INTORG'
    u[1,1]    OBJ       48.076654     CON1      -1.000000   
    u[1,2]    OBJ       49.466655     CON2      -1.000000   
    u[2,1]    OBJ       49.996186     CON3      -1.000000   
    u[2,2]    OBJ       32.230043     CON4      -1.000000   
    u[3,1]    OBJ       20.066487     CON5      -1.000000   
    u[3,2]    OBJ       27.484319     CON6      -1.000000   
    y[1,1,1]  OBJ       6.651583      CON7      0.720726    
    y[1,1,1]  CON13     1.000000    
    y[1,1,2]  OBJ       9.356794      CON8      0.681221    
    y[1,1,2]  CON14     1.000000    
    y[1,2,1]  OBJ       7.135610      CON7      1.120288    
    y[1,2,1]  CON15     1.000000    
    y[1,2,2]  OBJ       5.132112      CON8      1.461753    
    y[1,2,2]  CON16     1.000000    
    y[1,3,1]  OBJ       5.691764      CON7      0.519107    
    y[1,3,1]  CON17     1.000000    
    y[1,3,2]  OBJ       9.545110      CON8      1.015437    
    y[1,3,2]  CON18     1.000000    
    y[1,4,1]  OBJ       6.509825      CON7      0.502969    
    y[1,4,1]  CON19     1.000000    
    y[1,4,2]  OBJ       7.899862      CON8      0.964219    
    y[1,4,2]  CON20     1.000000    
    y[2,1,1]  OBJ       6.648017      CON9      0.720726    
    y[2,1,1]  CON13     1.000000    
    y[2,1,2]  OBJ       6.791891      CON10     0.681221    
    y[2,1,2]  CON14     1.000000    
    y[2,2,1]  OBJ       5.407759      CON9      1.120288    
    y[2,2,1]  CON15     1.000000    
    y[2,2,2]  OBJ       5.077188      CON10     1.461753    
    y[2,2,2]  CON16     1.000000    
    y[2,3,1]  OBJ       6.354037      CON9      0.519107    
    y[2,3,1]  CON17     1.000000    
    y[2,3,2]  OBJ       8.938465      CON10     1.015437    
    y[2,3,2]  CON18     1.000000    
    y[2,4,1]  OBJ       7.193593      CON9      0.502969    
    y[2,4,1]  CON19     1.000000    
    y[2,4,2]  OBJ       7.349526      CON10     0.964219    
    y[2,4,2]  CON20     1.000000    
    y[3,1,1]  OBJ       7.887890      CON11     0.720726    
    y[3,1,1]  CON13     1.000000    
    y[3,1,2]  OBJ       6.702135      CON12     0.681221    
    y[3,1,2]  CON14     1.000000    
    y[3,2,1]  OBJ       6.358080      CON11     1.120288    
    y[3,2,1]  CON15     1.000000    
    y[3,2,2]  OBJ       8.193389      CON12     1.461753    
    y[3,2,2]  CON16     1.000000    
    y[3,3,1]  OBJ       6.371626      CON11     0.519107    
    y[3,3,1]  CON17     1.000000    
    y[3,3,2]  OBJ       6.924288      CON12     1.015437    
    y[3,3,2]  CON18     1.000000    
    y[3,4,1]  OBJ       9.888424      CON11     0.502969    
    y[3,4,1]  CON19     1.000000    
    y[3,4,2]  OBJ       8.943698      CON12     0.964219    
    y[3,4,2]  CON20     1.000000    
    z[1,1]    OBJ       748.530985    CON13     1.000000    
    z[1,2]    OBJ       753.970430    CON14     1.000000    
    z[2,1]    OBJ       751.331307    CON15     1.000000    
    z[2,2]    OBJ       553.188990    CON16     1.000000    
    z[3,1]    OBJ       866.149077    CON17     1.000000    
    z[3,2]    OBJ       506.275738    CON18     1.000000    
    z[4,1]    OBJ       626.046298    CON19     1.000000    
    z[4,2]    OBJ       978.407655    CON20     1.000000    
    MARKER    'MARKER'                 'INTEND'
RHS
    RHS       CON1      -0.000000     CON2      -0.000000   
    RHS       CON3      -0.000000     CON4      -0.000000   
    RHS       CON5      -0.000000     CON6      -0.000000   
    RHS       CON7      -0.000000     CON8      -0.000000   
    RHS       CON9      -0.000000     CON10     -0.000000   
    RHS       CON11     -0.000000     CON12     -0.000000   
    RHS       CON13     1.000000      CON14     1.000000    
    RHS       CON15     1.000000      CON16     1.000000    
    RHS       CON17     1.000000      CON18     1.000000    
    RHS       CON19     1.000000      CON20     1.000000    
BOUNDS
 BV BOUND     u[1,1]  
 BV BOUND     u[1,2]  
 BV BOUND     u[2,1]  
 BV BOUND     u[2,2]  
 BV BOUND     u[3,1]  
 BV BOUND     u[3,2]  
 BV BOUND     y[1,1,1]
 BV BOUND     y[1,1,2]
 BV BOUND     y[1,2,1]
 BV BOUND     y[1,2,2]
 BV BOUND     y[1,3,1]
 BV BOUND     y[1,3,2]
 BV BOUND     y[1,4,1]
 BV BOUND     y[1,4,2]
 BV BOUND     y[2,1,1]
 BV BOUND     y[2,1,2]
 BV BOUND     y[2,2,1]
 BV BOUND     y[2,2,2]
 BV BOUND     y[2,3,1]
 BV BOUND     y[2,3,2]
 BV BOUND     y[2,4,1]
 BV BOUND     y[2,4,2]
 BV BOUND     y[3,1,1]
 BV BOUND     y[3,1,2]
 BV BOUND     y[3,2,1]
 BV BOUND     y[3,2,2]
 BV BOUND     y[3,3,1]
 BV BOUND     y[3,3,2]
 BV BOUND     y[3,4,1]
 BV BOUND     y[3,4,2]
 BV BOUND     z[1,1]  
 BV BOUND     z[1,2]  
 BV BOUND     z[2,1]  
 BV BOUND     z[2,2]  
 BV BOUND     z[3,1]  
 BV BOUND     z[3,2]  
 BV BOUND     z[4,1]  
 BV BOUND     z[4,2]  
ENDATA
